# interactions involving Drude particles
# pair_coeff    *   2* coul/long/cs
pair_coeff * 2* 0.0 0.0 # All-DPs
# Thole damping if more than 1 Drude per molecule
# pair_coeff    1    1 thole   1.000
# pair_coeff    1    2 thole   1.000
# pair_coeff    2    2 thole   1.000
pair_coeff	  1 1 1.0 1.0 1.5 # solvent